# Objective value = 57789
d_2_18_1 1
d_6_10_1 1
d_7_8_1 9
d_7_33_1 1
d_8_9_1 52
d_8_10_1 23
d_8_12_1 1
d_8_17_1 1
d_8_22_1 1
d_8_33_1 1
d_9_10_1 2
d_10_11_1 20
d_10_12_1 1
d_10_16_1 1
d_10_17_1 1
d_10_19_1 1
d_11_12_1 3
d_12_13_1 2
d_13_14_1 2
d_14_15_1 9
d_14_17_1 5
d_14_19_1 1
d_14_29_1 1
d_15_16_1 1
d_16_17_1 7
d_17_18_1 72
d_17_19_1 1
d_18_19_1 16
d_19_20_1 15
d_19_21_1 2
d_19_22_1 1
d_19_41_1 1
d_20_21_1 2
d_21_22_1 19
d_22_23_1 29
d_22_25_1 3
d_23_24_1 2
d_23_25_1 1
d_26_27_1 1
d_27_28_1 1
d_29_31_1 1
d_29_32_1 2
d_30_31_1 1
d_31_32_1 4
d_32_33_1 3
d_33_34_1 2
d_34_35_1 4
d_34_37_1 1
d_35_38_1 1
d_36_37_1 1
d_36_41_1 1
d_36_42_1 1
d_37_38_1 4
d_37_40_1 1
d_39_40_1 1
d_40_42_1 1
d_44_45_2 5
d_45_46_2 26
d_46_47_2 19
d_46_48_2 3
d_47_48_2 9
d_47_71_2 1
d_48_49_2 4
d_48_50_2 9
d_48_52_2 1
d_48_59_2 1
d_48_60_2 1
d_48_78_2 1
d_49_50_2 2
d_50_51_2 44
d_50_52_2 1
d_51_52_2 13
d_51_54_2 1
d_51_55_2 2
d_52_54_2 5
d_52_55_2 2
d_52_56_2 1
d_52_57_2 2
d_54_55_2 32
d_54_57_2 2
d_54_59_2 2
d_55_56_2 35
d_55_83_2 1
d_55_87_2 1
d_56_57_2 9
d_57_58_2 16
d_57_59_2 14
d_57_61_2 2
d_57_63_2 1
d_57_69_2 1
d_57_85_2 1
d_57_87_2 1
d_58_59_2 2
d_59_60_2 28
d_59_61_2 3
d_59_63_2 1
d_60_61_2 2
d_61_62_2 32
d_61_63_2 2
d_61_64_2 1
d_62_63_2 3
d_63_64_2 26
d_63_66_2 1
d_63_83_2 1
d_64_65_2 2
d_64_69_2 1
d_65_66_2 3
d_66_67_2 2
d_66_69_2 1
d_66_71_2 1
d_66_78_2 1
d_68_69_2 8
d_69_70_2 10
d_70_71_2 21
d_71_72_2 4
d_71_73_2 1
d_71_87_2 2
d_72_73_2 2
d_73_74_2 16
d_74_75_2 3
d_75_76_2 7
d_76_77_2 6
d_77_78_2 2
d_78_79_2 1
d_78_87_2 1
d_79_80_2 1
d_79_87_2 1
d_80_87_2 1
d_81_87_2 1
d_83_84_2 4
d_84_85_2 1
d_86_87_2 2
d_87_286_5 151
d_87_287_5 2
d_87_289_5 1
d_87_296_5 1
d_88_89_13 1
d_88_90_13 1
d_88_91_13 2
d_94_95_14 8
d_95_96_14 25
d_95_98_14 1
d_96_97_14 5
d_97_98_14 4
d_99_100_3 11
d_99_101_3 3
d_99_102_3 3
d_99_105_3 1
d_99_110_3 1
d_99_116_3 1
d_99_146_3 1
d_100_101_3 340
d_100_102_3 6
d_100_103_3 2
d_100_105_3 2
d_100_106_3 1
d_100_130_3 1
d_100_150_3 1
d_101_102_3 77
d_101_103_3 1
d_101_105_3 1
d_102_103_3 114
d_102_106_3 1
d_102_107_3 1
d_102_109_3 1
d_102_113_3 1
d_103_104_3 58
d_103_105_3 20
d_103_106_3 1
d_103_120_3 1
d_104_105_3 21
d_104_108_3 1
d_105_106_3 497
d_105_107_3 4
d_105_108_3 5
d_105_109_3 2
d_105_110_3 3
d_105_116_3 1
d_105_117_3 2
d_105_120_3 1
d_105_121_3 1
d_105_131_3 1
d_106_107_3 77
d_106_108_3 4
d_106_109_3 4
d_106_110_3 1
d_106_137_3 1
d_107_108_3 46
d_107_109_3 13
d_107_110_3 4
d_107_111_3 1
d_107_113_3 2
d_107_115_3 2
d_107_116_3 2
d_107_117_3 3
d_107_119_3 1
d_107_121_3 1
d_107_130_3 2
d_107_132_3 1
d_107_145_3 1
d_108_109_3 146
d_108_110_3 1
d_108_141_3 1
d_109_110_3 383
d_109_111_3 1
d_109_112_3 1
d_109_122_3 1
d_110_111_3 306
d_110_113_3 2
d_110_117_3 3
d_110_118_3 1
d_110_121_3 1
d_110_122_3 1
d_110_126_3 1
d_110_146_3 1
d_111_112_3 61
d_111_113_3 53
d_111_115_3 1
d_111_117_3 5
d_111_120_3 3
d_111_121_3 4
d_111_123_3 1
d_111_128_3 1
d_111_130_3 1
d_111_131_3 3
d_111_134_3 1
d_111_142_3 1
d_112_113_3 8
d_112_117_3 1
d_112_145_3 1
d_113_114_18 0
d_113_114_3 289
d_113_115_18 0
d_113_115_3 40
d_113_116_18 0
d_113_116_3 7
d_113_117_3 35
d_113_118_3 10
d_113_119_3 1
d_113_120_3 8
d_113_121_3 8
d_113_122_3 4
d_113_123_3 2
d_113_125_3 3
d_113_126_3 1
d_113_129_3 1
d_113_130_3 3
d_113_131_3 1
d_113_132_3 1
d_113_135_3 1
d_113_137_3 1
d_113_143_3 1
d_114_115_18 0
d_114_115_3 11
d_114_116_18 1
d_114_116_3 0
d_114_117_3 1
d_114_121_3 1
d_114_123_3 1
d_115_116_18 77
d_115_116_3 0
d_115_117_3 22
d_115_119_3 1
d_115_120_3 1
d_115_122_3 1
d_116_117_3 63
d_116_117_6 0
d_116_118_3 0
d_116_118_6 2
d_116_120_3 0
d_116_120_6 6
d_116_121_3 0
d_116_121_6 4
d_116_123_3 0
d_116_123_6 3
d_116_124_3 1
d_116_129_3 1
d_116_130_3 2
d_116_131_3 1
d_116_132_3 2
d_116_134_3 1
d_116_324_6 1
d_116_326_6 1
d_116_328_6 1
d_116_329_6 1
d_117_118_3 0
d_117_118_6 615
d_117_119_3 0
d_117_119_6 3
d_117_120_3 0
d_117_120_6 5
d_117_121_3 0
d_117_121_6 6
d_117_122_3 0
d_117_122_6 2
d_117_123_3 0
d_117_123_6 1
d_117_125_3 1
d_117_126_3 2
d_117_130_3 2
d_117_322_6 1
d_117_326_6 3
d_117_329_6 1
d_118_119_3 0
d_118_119_6 117
d_118_120_3 0
d_118_120_6 4
d_118_130_3 1
d_118_327_6 1
d_119_120_3 75
d_119_120_6 0
d_119_121_3 0
d_119_121_6 1
d_119_122_3 0
d_119_122_6 2
d_119_127_3 1
d_120_121_3 0
d_120_121_6 693
d_120_122_3 0
d_120_122_6 4
d_120_123_3 0
d_120_123_6 4
d_120_126_3 1
d_120_130_3 2
d_121_122_3 0
d_121_122_6 784
d_121_123_3 0
d_121_123_6 8
d_121_125_3 1
d_121_126_3 1
d_121_129_3 1
d_122_123_3 376
d_122_123_6 0
d_122_125_3 1
d_122_126_3 2
d_122_130_3 3
d_122_131_3 2
d_122_321_6 1
d_122_328_6 1
d_122_329_6 1
d_122_344_6 1
d_123_124_3 106
d_123_125_3 19
d_123_126_3 42
d_123_127_3 1
d_123_128_3 3
d_123_129_3 7
d_123_130_3 27
d_123_131_3 3
d_123_137_3 1
d_123_142_3 1
d_123_143_3 1
d_123_321_6 120
d_123_322_6 27
d_123_323_6 5
d_123_324_6 3
d_123_325_6 9
d_123_326_6 3
d_123_327_6 3
d_123_328_6 4
d_123_329_6 4
d_123_330_6 1
d_123_332_6 1
d_123_334_6 1
d_123_336_6 1
d_124_125_3 21
d_124_126_3 1
d_124_130_3 1
d_125_126_3 32
d_125_126_8 0
d_125_129_3 1
d_125_137_3 1
d_125_145_3 1
d_126_127_3 320
d_126_128_3 18
d_126_129_3 16
d_126_130_3 47
d_126_131_3 8
d_126_133_3 2
d_126_134_3 3
d_126_143_3 1
d_126_147_3 1
d_126_505_8 17
d_127_128_3 5
d_127_130_3 4
d_127_134_3 1
d_127_137_3 1
d_127_148_3 1
d_128_129_3 109
d_128_129_8 0
d_128_130_3 0
d_128_130_8 5
d_128_457_8 1
d_128_507_8 1
d_129_130_3 0
d_129_130_8 373
d_129_131_3 0
d_129_131_8 4
d_130_131_3 0
d_130_131_8 2272
d_130_133_3 2
d_130_134_3 2
d_130_137_3 1
d_130_466_8 1
d_130_467_8 1
d_130_506_8 1
d_130_507_8 5
d_131_132_3 0
d_131_132_8 344
d_131_133_3 26
d_131_134_3 33
d_131_135_3 2
d_131_136_3 5
d_131_137_3 2
d_131_138_3 1
d_131_141_3 1
d_131_450_8 3
d_131_451_8 1
d_131_452_8 3
d_131_457_8 1
d_131_466_8 1
d_131_506_8 61
d_131_507_8 28
d_131_508_8 5
d_131_510_8 1
d_131_514_8 1
d_132_133_3 6
d_132_134_3 2
d_132_506_8 15
d_132_507_8 2
d_133_134_3 151
d_133_136_3 1
d_133_148_3 1
d_134_135_3 488
d_134_136_3 17
d_134_137_3 10
d_134_138_3 1
d_134_139_3 1
d_134_140_3 1
d_134_141_3 2
d_134_143_3 3
d_135_136_3 51
d_135_137_3 3
d_135_141_3 1
d_136_137_3 93
d_136_138_3 2
d_137_138_3 175
d_137_139_3 3
d_137_140_3 3
d_137_141_3 1
d_137_143_3 1
d_137_150_3 1
d_138_139_3 19
d_138_140_3 2
d_138_141_3 2
d_139_140_3 42
d_140_141_3 176
d_140_142_3 2
d_140_143_3 2
d_140_148_3 1
d_141_142_3 54
d_141_143_3 2
d_142_143_3 129
d_143_144_3 235
d_143_145_3 11
d_143_146_3 7
d_143_147_3 1
d_143_150_3 3
d_143_152_3 1
d_144_145_3 18
d_144_146_3 2
d_145_146_3 22
d_145_150_3 1
d_145_152_3 2
d_146_147_3 65
d_146_148_3 2
d_146_152_3 1
d_147_148_3 25
d_148_149_3 66
d_148_150_3 1
d_148_152_3 2
d_149_150_3 9
d_150_152_3 1
d_152_153_3 7
d_153_155_3 1
d_155_156_3 4
d_156_157_4 3
d_157_159_4 323
d_157_160_4 98
d_157_161_4 11
d_157_162_4 4
d_157_163_4 7
d_157_164_4 4
d_157_165_4 3
d_157_166_4 4
d_157_167_4 3
d_157_168_4 3
d_157_169_4 3
d_157_170_4 3
d_157_171_4 1
d_157_175_4 1
d_157_177_4 1
d_157_179_4 4
d_157_180_4 4
d_157_181_4 1
d_157_186_4 1
d_157_187_4 1
d_157_190_4 2
d_157_194_4 2
d_159_160_4 472
d_159_161_4 5
d_159_162_4 1
d_159_164_4 1
d_160_161_4 470
d_160_162_4 1
d_160_164_4 2
d_160_165_4 2
d_160_172_4 1
d_160_181_4 1
d_160_190_4 1
d_161_162_4 159
d_161_163_4 2
d_161_169_4 1
d_161_179_4 1
d_162_163_4 62
d_162_165_4 1
d_162_167_4 1
d_163_164_4 167
d_163_165_4 7
d_163_167_4 1
d_163_170_4 1
d_164_165_4 173
d_164_166_4 1
d_164_169_4 1
d_165_166_4 264
d_165_167_4 3
d_165_170_4 2
d_166_167_4 250
d_166_169_4 1
d_166_170_4 2
d_166_179_4 1
d_166_180_4 1
d_166_195_4 1
d_167_168_4 261
d_167_169_4 5
d_167_170_4 5
d_167_171_4 4
d_167_172_4 1
d_167_181_4 1
d_167_183_4 1
d_168_169_4 318
d_168_170_4 21
d_168_171_4 5
d_168_172_4 3
d_168_176_4 1
d_168_177_4 1
d_168_178_4 1
d_168_179_4 1
d_168_180_4 2
d_168_181_4 1
d_168_182_4 1
d_168_184_4 3
d_168_186_4 1
d_168_189_4 1
d_168_190_4 1
d_168_191_4 1
d_168_192_4 1
d_168_194_4 1
d_168_197_4 1
d_168_201_4 2
d_169_170_4 120
d_170_171_4 320
d_170_172_4 4
d_170_179_4 1
d_170_190_4 1
d_171_172_4 190
d_171_174_4 1
d_171_175_4 1
d_171_178_4 1
d_171_180_4 1
d_171_185_4 1
d_171_199_4 1
d_172_173_4 127
d_172_174_4 3
d_172_175_4 2
d_172_176_4 1
d_172_178_4 1
d_172_179_4 1
d_172_181_4 1
d_172_199_4 1
d_173_174_4 12
d_173_177_4 1
d_173_179_4 1
d_173_181_4 1
d_174_175_4 61
d_174_176_4 1
d_174_177_4 2
d_174_179_4 1
d_174_180_4 1
d_174_182_4 1
d_175_176_4 233
d_175_177_4 2
d_175_178_4 4
d_175_179_4 2
d_175_180_4 1
d_175_184_4 1
d_175_188_4 1
d_176_177_4 69
d_176_178_4 2
d_176_179_4 3
d_176_180_4 2
d_176_181_4 1
d_176_197_4 1
d_177_178_4 26
d_177_179_4 2
d_177_407_9 54
d_178_179_4 169
d_178_180_4 7
d_178_181_4 1
d_178_189_4 1
d_178_438_10 151
d_178_445_10 1
d_179_180_4 705
d_179_181_4 2
d_179_190_4 1
d_179_199_4 1
d_180_181_4 829
d_180_182_4 8
d_180_183_4 4
d_180_185_4 1
d_180_190_4 1
d_180_191_4 1
d_181_182_4 274
d_181_183_4 3
d_181_185_4 1
d_182_183_4 189
d_182_184_4 2
d_182_185_4 1
d_182_186_4 1
d_182_188_4 1
d_182_191_4 1
d_183_184_4 155
d_183_185_4 3
d_183_190_4 1
d_184_185_4 28
d_184_188_4 1
d_184_191_4 1
d_184_192_4 1
d_184_193_4 1
d_185_186_4 262
d_185_187_4 2
d_185_188_4 2
d_185_190_4 1
d_186_187_4 86
d_186_188_4 2
d_187_188_4 122
d_187_190_4 1
d_188_189_4 154
d_188_190_4 6
d_188_191_4 7
d_188_194_4 1
d_188_197_4 2
d_188_205_4 1
d_189_190_4 55
d_189_191_4 4
d_189_196_4 1
d_189_204_4 1
d_190_191_4 57
d_190_197_4 1
d_190_198_4 1
d_190_205_4 1
d_191_192_4 184
d_191_193_4 2
d_191_195_4 1
d_191_196_4 1
d_191_199_4 1
d_192_193_4 78
d_193_194_4 17
d_193_195_4 2
d_193_197_4 1
d_193_300_5 31
d_194_195_4 16
d_194_197_4 1
d_194_200_4 1
d_194_201_4 1
d_195_196_17 0
d_195_196_4 159
d_195_197_17 0
d_195_197_4 16
d_195_198_4 4
d_195_199_4 3
d_195_200_4 4
d_195_201_4 3
d_195_202_4 1
d_195_203_4 2
d_195_204_4 1
d_195_205_4 1
d_196_197_17 0
d_196_197_4 24
d_196_198_4 2
d_196_199_4 1
d_196_200_4 1
d_196_202_4 1
d_196_203_4 1
d_196_208_4 1
d_197_198_4 15
d_197_199_4 1
d_197_200_4 1
d_197_201_4 4
d_197_202_4 2
d_197_203_4 3
d_197_204_4 1
d_197_205_4 2
d_197_208_4 1
d_197_214_17 2
d_197_215_17 1
d_197_216_17 1
d_197_218_17 1
d_198_199_4 54
d_198_200_4 2
d_198_202_4 2
d_198_210_4 1
d_199_200_4 52
d_199_201_4 3
d_199_202_4 2
d_199_203_4 3
d_199_204_4 1
d_200_201_4 31
d_200_202_4 1
d_201_202_4 100
d_201_203_4 3
d_202_203_4 161
d_202_204_4 1
d_202_208_4 1
d_203_204_4 124
d_203_205_4 18
d_203_206_4 1
d_203_207_4 1
d_203_250_33 1
d_203_251_33 2
d_203_253_33 1
d_204_205_4 21
d_204_209_4 1
d_205_206_4 105
d_205_209_4 3
d_205_210_4 1
d_206_207_4 4
d_207_209_4 1
d_208_209_4 1
d_209_210_4 2
d_210_211_4 1
d_212_218_17 1
d_214_215_17 1
d_215_216_17 1
d_216_217_17 2
d_216_220_17 1
d_217_219_17 1
d_220_221_18 10
d_221_222_18 46
d_222_113_18 1
d_222_223_18 40
d_222_224_18 7
d_222_225_18 2
d_222_226_18 1
d_223_116_18 1
d_223_224_18 12
d_223_225_18 2
d_224_225_18 57
d_225_113_18 2
d_225_116_18 1
d_225_226_18 62
d_226_113_18 10
d_226_115_18 1
d_226_116_18 2
d_226_227_18 27
d_227_113_18 1
d_227_115_18 1
d_227_228_18 1
d_228_113_18 9
d_229_230_15 8
d_230_231_15 14
d_231_232_15 1
d_231_233_15 2
d_233_234_15 14
d_233_237_15 1
d_234_237_15 1
d_237_238_16 15
d_237_239_16 1
d_238_239_16 41
d_239_240_16 32
d_240_241_16 25
d_241_242_16 18
d_241_243_16 1
d_241_244_16 1
d_242_243_16 7
d_242_244_16 2
d_243_244_16 3
d_243_247_16 1
d_244_245_16 87
d_244_246_16 1
d_245_246_16 34
d_245_247_16 1
d_246_247_16 4
d_251_252_33 7
d_252_253_33 5
d_253_254_33 24
d_254_255_34 18
d_255_256_34 61
d_256_257_34 10
d_256_258_34 2
d_256_260_34 1
d_257_258_34 2
d_258_259_34 31
d_258_261_34 4
d_259_260_34 2
d_260_261_34 3
d_262_263_5 39
d_263_264_5 153
d_264_265_5 56
d_265_87_5 1
d_265_268_5 16
d_265_269_5 16
d_265_271_5 10
d_265_273_5 1
d_265_274_5 5
d_265_275_5 1
d_265_278_5 1
d_265_279_5 2
d_265_286_5 2
d_268_87_5 1
d_268_269_5 85
d_268_270_5 1
d_268_271_5 5
d_268_281_5 1
d_269_87_5 1
d_269_270_5 127
d_269_271_5 51
d_269_272_5 2
d_269_273_5 2
d_269_274_5 3
d_269_275_5 1
d_269_276_5 1
d_269_278_5 1
d_269_287_5 1
d_269_289_5 1
d_270_271_5 7
d_271_272_5 270
d_271_273_5 6
d_271_274_5 23
d_271_275_5 1
d_271_277_5 2
d_271_278_5 1
d_271_279_5 2
d_271_285_5 1
d_272_273_5 40
d_272_274_5 13
d_272_277_5 3
d_272_278_5 3
d_273_274_5 92
d_273_289_5 1
d_274_87_5 1
d_274_275_5 424
d_274_276_5 18
d_274_277_5 7
d_274_278_5 6
d_274_279_5 7
d_274_280_5 1
d_274_281_5 2
d_274_282_5 1
d_274_284_5 2
d_274_285_5 1
d_274_286_5 2
d_274_288_5 1
d_274_289_5 1
d_274_300_5 1
d_275_276_5 9
d_275_277_5 1
d_275_278_5 2
d_275_279_5 1
d_275_281_5 1
d_275_282_5 1
d_275_284_5 1
d_276_87_5 1
d_276_277_5 82
d_276_278_5 1
d_276_279_5 1
d_277_278_5 77
d_277_281_5 1
d_277_284_5 1
d_278_279_5 110
d_279_87_5 2
d_279_280_5 160
d_279_281_5 18
d_279_282_5 4
d_279_284_5 2
d_279_286_5 1
d_279_291_5 1
d_280_281_5 53
d_280_292_5 1
d_281_282_5 214
d_281_283_5 1
d_281_284_5 8
d_281_286_5 4
d_281_287_5 2
d_281_288_5 2
d_282_283_5 62
d_282_284_5 15
d_282_285_5 2
d_282_286_5 4
d_282_287_5 2
d_282_288_5 2
d_283_284_5 20
d_284_87_5 20
d_284_285_5 224
d_284_286_5 9
d_284_287_5 1
d_284_289_5 4
d_285_87_5 21
d_285_286_5 4
d_285_287_5 1
d_285_288_5 1
d_285_289_5 3
d_285_291_5 1
d_285_292_5 1
d_286_287_5 302
d_286_288_5 14
d_286_289_5 4
d_286_294_5 1
d_287_288_5 155
d_287_289_5 2
d_288_289_5 338
d_289_290_5 326
d_289_291_5 4
d_289_292_5 1
d_289_293_5 4
d_289_296_5 1
d_290_291_5 55
d_290_292_5 2
d_290_293_5 1
d_290_296_5 1
d_291_292_5 22
d_292_293_5 42
d_292_298_5 1
d_293_294_5 84
d_293_295_5 1
d_293_296_5 2
d_293_297_5 1
d_293_304_5 1
d_294_295_5 22
d_295_296_5 27
d_296_193_5 1
d_296_297_5 55
d_296_298_5 3
d_296_300_5 1
d_297_298_5 18
d_298_299_5 39
d_298_300_5 1
d_299_193_5 71
d_299_300_5 11
d_300_301_5 157
d_300_305_5 1
d_301_302_5 11
d_302_303_5 3
d_303_304_5 3
d_304_305_5 4
d_305_306_5 34
d_306_307_5 12
d_307_308_5 1
d_308_313_6 1
d_308_314_6 1
d_309_310_6 1
d_310_120_6 1
d_310_121_6 1
d_310_123_6 1
d_310_311_6 23
d_310_313_6 13
d_310_314_6 1
d_310_320_6 1
d_311_117_6 1
d_311_123_6 1
d_311_312_6 10
d_311_313_6 9
d_311_318_6 1
d_312_117_6 1
d_312_120_6 2
d_312_121_6 1
d_312_313_6 5
d_312_317_6 1
d_313_314_6 247
d_314_116_6 1
d_314_122_6 1
d_314_123_6 1
d_314_315_6 55
d_314_316_6 5
d_314_317_6 2
d_315_316_6 6
d_316_317_6 65
d_316_320_6 1
d_317_121_6 1
d_317_318_6 47
d_318_118_6 1
d_318_319_6 67
d_318_320_6 1
d_319_116_6 1
d_319_119_6 1
d_319_120_6 2
d_319_121_6 1
d_319_320_6 46
d_320_116_6 49
d_320_117_6 17
d_320_120_6 4
d_320_121_6 4
d_320_122_6 1
d_320_329_6 1
d_320_337_6 2
d_321_322_6 11
d_322_323_6 77
d_322_324_6 2
d_322_325_6 1
d_322_327_6 1
d_322_329_6 2
d_322_330_6 1
d_322_340_6 1
d_323_324_6 47
d_323_325_6 3
d_323_326_6 2
d_323_327_6 1
d_323_328_6 1
d_323_330_6 1
d_324_325_6 49
d_324_326_6 5
d_324_328_6 1
d_324_329_6 3
d_325_326_6 196
d_325_328_6 1
d_325_331_6 1
d_326_327_6 290
d_326_328_6 7
d_326_329_6 1
d_327_328_6 165
d_327_329_6 2
d_328_329_6 368
d_328_330_6 2
d_328_336_6 2
d_328_338_6 1
d_329_330_6 430
d_329_331_6 1
d_329_336_6 1
d_329_339_6 1
d_329_341_6 1
d_329_343_6 1
d_330_331_6 4
d_330_332_6 1
d_330_333_6 7
d_330_334_6 18
d_330_335_6 4
d_330_336_6 8
d_330_337_6 2
d_330_338_6 1
d_330_339_6 3
d_330_340_6 2
d_330_341_6 7
d_330_344_6 1
d_330_347_6 1
d_331_334_6 1
d_333_334_6 39
d_333_336_6 2
d_333_340_6 1
d_334_335_6 51
d_334_336_6 24
d_334_337_6 3
d_334_338_6 2
d_334_339_6 1
d_334_340_6 1
d_334_341_6 1
d_335_336_6 6
d_336_337_6 182
d_336_340_6 3
d_336_341_6 3
d_336_342_6 1
d_337_338_6 11
d_337_339_6 14
d_338_339_6 3
d_338_340_6 1
d_339_340_6 154
d_339_341_6 1
d_339_343_6 1
d_340_266_6 1
d_340_341_6 173
d_340_343_6 2
d_340_344_6 1
d_341_342_6 1
d_341_343_6 11
d_341_346_6 1
d_341_347_6 2
d_341_351_6 1
d_343_344_6 38
d_343_345_6 3
d_343_346_6 1
d_343_347_6 2
d_343_350_6 1
d_344_345_6 2
d_345_346_6 30
d_345_347_6 1
d_346_347_6 3
d_347_348_6 3
d_353_354_19 28
d_353_357_19 1
d_354_355_19 5
d_356_357_19 1
d_357_359_19 1
d_359_360_20 34
d_360_361_20 261
d_360_362_20 3
d_361_362_20 83
d_361_363_20 1
d_362_363_20 35
d_362_364_20 2
d_362_365_20 1
d_363_364_20 42
d_364_365_20 148
d_365_424_10 266
d_365_425_10 4
d_365_428_10 1
d_365_429_10 1
d_365_434_10 2
d_365_436_10 2
d_365_437_10 1
d_365_438_10 1
d_365_451_10 1
d_366_367_9 67
d_366_368_9 5
d_366_369_9 4
d_366_376_9 1
d_366_379_9 2
d_366_382_9 1
d_367_368_9 73
d_367_369_9 1
d_368_369_37 0
d_368_369_9 164
d_368_370_37 0
d_368_370_9 1
d_368_377_37 0
d_368_377_9 1
d_369_370_37 0
d_369_370_9 102
d_369_371_37 0
d_369_371_9 1
d_369_377_37 0
d_369_377_9 1
d_369_383_9 4
d_369_391_9 1
d_370_371_37 0
d_370_371_9 0
d_370_371_30 17
d_370_373_37 0
d_370_373_9 0
d_370_373_30 1
d_370_377_37 0
d_370_377_9 2
d_370_377_30 0
d_370_391_9 1
d_371_372_37 0
d_371_372_9 13
d_371_372_30 0
d_371_373_37 0
d_371_373_9 3
d_371_373_30 0
d_372_373_37 0
d_372_373_9 5
d_372_373_30 0
d_372_417_9 1
d_373_374_37 125
d_373_374_9 0
d_373_374_30 0
d_373_376_37 0
d_373_376_9 0
d_373_376_30 1
d_373_377_37 0
d_373_377_9 2
d_373_377_30 0
d_373_379_9 1
d_373_379_30 0
d_374_375_37 0
d_374_375_9 0
d_374_375_30 57
d_374_376_37 0
d_374_376_9 0
d_374_376_30 25
d_374_377_37 0
d_374_377_9 8
d_374_377_30 0
d_374_378_9 1
d_374_378_30 0
d_374_379_9 2
d_374_379_30 0
d_374_383_9 8
d_374_408_9 1
d_375_376_37 0
d_375_376_9 0
d_375_376_30 23
d_375_377_37 0
d_375_377_9 7
d_375_377_30 0
d_375_382_9 1
d_375_382_30 0
d_375_383_9 2
d_375_400_9 1
d_376_377_37 0
d_376_377_9 245
d_376_377_30 0
d_376_382_9 1
d_376_382_30 0
d_376_383_9 1
d_376_390_9 1
d_377_378_7 0
d_377_378_9 379
d_377_378_30 0
d_377_379_7 0
d_377_379_9 7
d_377_379_30 0
d_377_381_7 0
d_377_381_9 2
d_377_381_30 0
d_377_382_7 0
d_377_382_9 4
d_377_382_30 0
d_377_383_7 0
d_377_383_9 3
d_377_391_7 0
d_377_391_9 2
d_377_473_38 80
d_377_474_38 3
d_377_476_38 1
d_377_477_38 1
d_378_379_7 0
d_378_379_9 0
d_378_379_30 48
d_378_382_7 0
d_378_382_9 0
d_378_382_30 1
d_378_384_7 0
d_378_384_9 1
d_378_386_7 0
d_378_386_9 1
d_378_469_30 1
d_379_380_7 0
d_379_380_9 12
d_379_381_7 0
d_379_381_9 0
d_379_381_30 1
d_379_382_7 0
d_379_382_9 0
d_379_382_30 5
d_379_383_7 0
d_379_383_9 5
d_379_469_30 79
d_380_381_7 0
d_380_381_9 3
d_380_382_7 0
d_380_382_9 2
d_381_382_7 0
d_381_382_9 0
d_381_382_12 0
d_381_382_30 59
d_381_383_7 0
d_381_383_9 7
d_382_383_7 0
d_382_383_9 678
d_382_384_7 0
d_382_384_9 3
d_382_385_7 0
d_382_385_9 1
d_382_386_7 0
d_382_386_9 1
d_382_391_7 0
d_382_391_9 2
d_382_392_7 0
d_382_392_9 3
d_382_393_7 1
d_382_393_9 0
d_382_395_7 0
d_382_395_9 1
d_382_405_9 1
d_382_488_7 1
d_383_365_9 1
d_383_384_7 0
d_383_384_9 1253
d_383_385_7 0
d_383_385_9 100
d_383_386_7 0
d_383_386_9 26
d_383_387_7 0
d_383_387_9 17
d_383_388_7 0
d_383_388_9 6
d_383_389_7 0
d_383_389_9 3
d_383_390_7 0
d_383_390_9 7
d_383_391_7 0
d_383_391_9 22
d_383_392_7 0
d_383_392_9 19
d_383_393_7 0
d_383_393_9 1
d_383_395_7 0
d_383_395_9 2
d_383_397_7 0
d_383_397_9 6
d_383_398_9 3
d_383_399_9 1
d_383_400_9 1
d_383_401_9 1
d_383_405_9 1
d_383_406_9 1
d_383_407_9 2
d_383_408_9 1
d_383_410_9 1
d_383_413_9 1
d_383_415_9 1
d_383_418_9 1
d_383_421_9 1
d_383_483_7 1
d_383_484_7 1
d_383_487_7 1
d_383_488_7 1
d_383_489_7 1
d_383_492_7 2
d_383_494_7 1
d_383_499_7 2
d_384_385_7 0
d_384_385_9 48
d_385_386_7 0
d_385_386_9 116
d_385_391_7 0
d_385_391_9 1
d_385_499_7 1
d_386_387_7 106
d_386_387_9 0
d_386_389_7 0
d_386_389_9 2
d_386_391_7 2
d_386_391_9 0
d_386_392_7 0
d_386_392_9 1
d_386_499_7 1
d_387_388_7 98
d_387_388_9 0
d_387_389_7 1
d_387_389_9 0
d_387_390_7 0
d_387_390_9 1
d_387_391_7 3
d_387_391_9 0
d_387_392_7 0
d_387_392_9 2
d_387_393_7 0
d_387_393_9 1
d_387_397_7 0
d_387_397_9 1
d_387_398_9 1
d_387_406_9 1
d_387_485_7 1
d_388_389_7 0
d_388_389_9 60
d_388_390_7 0
d_388_390_9 2
d_388_391_7 0
d_388_391_9 7
d_388_392_7 0
d_388_392_9 2
d_388_396_7 0
d_388_396_9 1
d_389_390_7 33
d_389_390_9 0
d_389_391_7 0
d_389_391_9 2
d_389_392_7 0
d_389_392_9 1
d_389_395_7 0
d_389_395_9 1
d_389_489_7 1
d_390_391_7 0
d_390_391_9 79
d_390_392_7 0
d_390_392_9 1
d_390_410_9 1
d_391_392_7 0
d_391_392_9 989
d_391_393_7 0
d_391_393_9 4
d_391_394_7 0
d_391_394_9 1
d_391_398_9 1
d_391_399_9 1
d_391_405_9 1
d_392_393_7 0
d_392_393_9 671
d_392_394_7 0
d_392_394_9 1
d_392_395_7 0
d_392_395_9 1
d_392_397_7 0
d_392_397_9 1
d_392_399_9 1
d_392_401_9 1
d_392_415_9 1
d_392_483_7 2
d_392_487_7 1
d_392_492_7 1
d_393_394_7 199
d_393_394_9 0
d_393_395_7 0
d_393_395_9 10
d_393_396_7 0
d_393_396_9 1
d_393_398_9 2
d_393_401_9 1
d_393_405_9 1
d_393_406_9 1
d_393_408_9 1
d_393_483_7 3
d_393_484_7 1
d_394_395_7 55
d_394_395_9 0
d_395_396_7 0
d_395_396_9 220
d_395_397_7 7
d_395_397_9 0
d_395_398_9 3
d_395_401_9 1
d_395_404_9 1
d_395_405_9 1
d_395_406_9 1
d_395_407_9 1
d_395_483_7 6
d_395_484_7 1
d_395_487_7 2
d_395_488_7 1
d_396_397_7 46
d_396_397_9 0
d_396_398_9 2
d_396_399_9 2
d_396_401_9 4
d_396_417_9 1
d_396_483_7 1
d_396_484_7 2
d_397_398_9 51
d_397_399_9 3
d_397_400_9 1
d_397_401_9 1
d_397_405_9 1
d_397_406_9 1
d_397_407_9 1
d_397_413_9 1
d_397_483_7 171
d_397_484_7 5
d_397_485_7 1
d_397_486_7 1
d_397_488_7 1
d_397_489_7 2
d_397_499_7 2
d_398_399_9 193
d_398_400_9 8
d_398_401_9 3
d_398_402_9 1
d_398_403_9 1
d_398_405_9 1
d_398_410_9 1
d_398_414_9 1
d_399_400_9 100
d_399_401_9 15
d_399_402_9 1
d_399_403_9 1
d_399_408_9 1
d_400_401_9 152
d_400_402_9 1
d_400_410_9 2
d_401_177_9 1
d_401_402_9 367
d_401_406_9 3
d_401_407_9 2
d_402_403_9 115
d_402_404_9 2
d_402_405_9 1
d_402_406_9 1
d_402_407_9 1
d_402_410_9 1
d_403_404_9 20
d_403_405_9 1
d_403_407_9 1
d_403_408_9 2
d_403_412_9 1
d_404_405_9 72
d_404_406_9 2
d_404_407_9 4
d_404_408_9 1
d_404_414_9 1
d_404_417_9 1
d_405_177_9 2
d_405_406_9 40
d_405_407_9 6
d_405_410_9 2
d_405_413_9 1
d_405_416_9 1
d_406_177_9 23
d_406_407_9 4
d_406_408_9 2
d_406_410_9 2
d_406_420_9 1
d_407_408_9 747
d_407_410_9 5
d_407_411_9 1
d_407_412_9 1
d_407_413_9 1
d_407_416_9 2
d_408_410_9 73
d_408_411_9 1
d_408_412_9 1
d_408_413_9 3
d_408_415_9 1
d_408_417_9 1
d_410_365_9 1
d_410_411_9 572
d_410_412_9 4
d_410_413_9 13
d_410_416_9 1
d_410_421_9 1
d_411_412_9 89
d_411_413_9 2
d_412_413_9 33
d_413_414_9 193
d_413_415_9 3
d_413_416_9 1
d_413_417_9 1
d_413_421_9 1
d_414_415_9 25
d_415_416_9 24
d_415_420_9 1
d_416_417_9 55
d_416_421_9 1
d_417_418_9 32
d_418_419_9 6
d_419_365_9 1
d_419_420_9 12
d_419_421_9 1
d_420_365_9 4
d_420_421_9 11
d_420_423_9 4
d_421_365_9 2
d_421_422_9 1
d_421_423_9 1
d_422_365_9 1
d_422_423_9 5
d_423_365_9 85
d_424_425_10 351
d_424_441_10 1
d_424_442_10 1
d_425_178_10 2
d_425_427_10 14
d_425_428_10 12
d_425_429_10 2
d_425_430_10 10
d_425_431_10 6
d_425_432_10 1
d_425_433_10 1
d_425_434_10 1
d_425_436_10 1
d_425_437_10 1
d_425_441_10 1
d_425_452_10 1
d_426_451_10 1
d_426_452_10 1
d_427_178_10 1
d_427_428_10 61
d_427_429_10 2
d_428_178_10 1
d_428_429_10 176
d_428_430_10 5
d_428_431_10 2
d_428_432_10 1
d_428_434_10 1
d_428_436_10 1
d_428_456_10 1
d_428_461_10 1
d_429_430_10 95
d_429_431_10 1
d_429_457_10 1
d_430_431_10 351
d_430_437_10 1
d_431_178_10 2
d_431_432_10 230
d_431_433_10 10
d_431_434_10 3
d_431_437_10 2
d_432_433_10 89
d_432_434_10 1
d_432_436_10 1
d_432_441_10 1
d_432_451_10 1
d_433_434_10 208
d_433_435_10 3
d_433_436_10 7
d_433_439_10 1
d_433_442_10 1
d_433_458_10 1
d_434_178_10 2
d_434_435_10 130
d_434_436_10 12
d_434_437_10 6
d_434_438_10 1
d_434_439_10 1
d_434_441_10 1
d_434_443_10 1
d_434_444_10 1
d_434_445_10 1
d_434_451_10 1
d_434_457_10 1
d_434_464_10 1
d_434_466_10 2
d_434_467_10 1
d_435_436_10 44
d_435_437_10 1
d_436_178_10 7
d_436_437_10 365
d_436_439_10 1
d_436_445_10 1
d_436_446_10 1
d_437_178_10 172
d_437_438_10 1
d_438_439_10 105
d_438_440_10 4
d_438_441_10 5
d_438_442_10 2
d_438_447_10 1
d_438_449_10 1
d_439_440_10 17
d_439_441_10 13
d_439_442_10 5
d_439_443_10 2
d_439_444_10 3
d_439_460_10 1
d_440_441_10 75
d_440_444_10 1
d_441_442_36 0
d_441_442_10 619
d_441_443_36 0
d_441_443_10 7
d_441_444_10 5
d_441_445_10 3
d_441_460_10 1
d_441_563_36 1
d_441_565_36 2
d_442_443_36 0
d_442_443_10 377
d_442_444_10 12
d_442_445_10 2
d_442_450_10 1
d_442_451_10 2
d_442_452_10 1
d_442_562_36 3
d_442_563_36 1
d_443_444_10 227
d_443_445_10 2
d_443_562_36 29
d_444_445_10 340
d_444_447_10 1
d_444_448_10 1
d_444_452_10 3
d_444_457_10 1
d_444_458_10 1
d_445_446_10 216
d_445_447_10 4
d_445_448_10 3
d_445_449_10 1
d_445_451_10 2
d_445_452_10 6
d_445_458_10 2
d_445_462_10 1
d_446_447_10 39
d_446_448_10 3
d_446_450_10 2
d_446_451_10 1
d_446_462_10 1
d_447_448_10 33
d_447_450_10 1
d_447_451_10 1
d_447_452_10 2
d_447_458_10 1
d_447_467_10 1
d_448_449_10 73
d_448_450_10 6
d_448_451_10 3
d_448_452_10 2
d_449_450_10 29
d_449_451_10 1
d_449_452_10 1
d_449_458_10 1
d_449_467_10 1
d_450_451_8 0
d_450_451_10 272
d_450_452_8 14
d_450_452_10 0
d_450_457_8 1
d_450_457_10 0
d_450_459_8 2
d_450_459_10 0
d_451_452_8 359
d_451_452_10 0
d_451_456_8 1
d_451_456_10 0
d_452_453_8 1055
d_452_453_10 0
d_452_454_8 5
d_452_454_10 0
d_452_455_8 1
d_452_455_10 0
d_452_456_8 5
d_452_456_10 0
d_452_457_8 12
d_452_457_10 0
d_452_458_8 4
d_452_458_10 0
d_452_459_8 3
d_452_459_10 0
d_452_461_8 1
d_452_461_10 0
d_452_466_8 3
d_452_466_10 0
d_452_467_8 1
d_452_467_10 0
d_453_454_8 144
d_453_454_10 0
d_453_455_8 6
d_453_455_10 0
d_453_456_8 9
d_453_456_10 0
d_453_457_8 0
d_453_457_10 9
d_453_458_8 0
d_453_458_10 1
d_453_459_8 3
d_453_459_10 0
d_453_462_8 0
d_453_462_10 1
d_453_463_8 1
d_453_463_10 0
d_453_466_8 0
d_453_466_10 3
d_454_455_8 12
d_454_455_10 0
d_454_456_8 0
d_454_456_10 1
d_454_458_8 2
d_454_458_10 0
d_455_456_8 0
d_455_456_10 22
d_456_457_8 113
d_456_457_10 0
d_456_458_8 0
d_456_458_10 2
d_456_466_8 2
d_456_466_10 0
d_457_458_8 157
d_457_458_10 0
d_457_459_8 0
d_457_459_10 7
d_457_466_8 0
d_457_466_10 1
d_458_459_8 121
d_458_459_10 0
d_458_460_8 0
d_458_460_10 2
d_458_461_8 0
d_458_461_10 1
d_458_466_8 1
d_458_466_10 0
d_459_460_8 172
d_459_460_10 0
d_459_476_10 1
d_460_461_8 96
d_460_461_10 0
d_460_462_8 3
d_460_462_10 0
d_460_463_8 1
d_460_463_10 0
d_460_465_8 1
d_460_465_10 0
d_460_466_8 3
d_460_466_10 0
d_460_469_8 1
d_460_469_10 0
d_461_462_8 0
d_461_462_10 16
d_461_466_8 0
d_461_466_10 2
d_461_467_8 1
d_461_467_10 0
d_462_463_8 20
d_462_463_10 0
d_462_464_8 0
d_462_464_10 1
d_462_466_8 3
d_462_466_10 0
d_463_464_8 9
d_463_464_10 0
d_463_466_8 0
d_463_466_10 1
d_463_467_8 1
d_463_467_10 0
d_464_465_8 0
d_464_465_10 15
d_464_466_8 0
d_464_466_10 4
d_464_467_8 1
d_464_467_10 0
d_465_466_8 0
d_465_466_10 17
d_466_467_8 870
d_466_467_10 0
d_466_468_8 5
d_466_468_10 0
d_466_469_8 1
d_466_469_10 0
d_466_470_8 1
d_466_470_10 0
d_466_471_8 1
d_466_471_10 0
d_466_472_8 3
d_466_472_10 0
d_466_473_10 3
d_466_476_10 2
d_466_481_10 1
d_467_468_8 0
d_467_468_10 113
d_467_468_11 0
d_467_468_29 0
d_467_515_23 8
d_467_516_23 1
d_467_524_23 1
d_468_380_11 6
d_468_380_29 0
d_468_469_8 39
d_468_469_10 0
d_469_381_12 13
d_469_381_30 0
d_469_382_12 0
d_469_382_30 2
d_469_470_8 0
d_469_470_10 4
d_469_471_8 0
d_469_471_10 1
d_470_471_8 0
d_470_471_10 8
d_470_471_29 0
d_471_472_8 4
d_471_472_10 0
d_471_472_29 0
d_471_473_10 1
d_471_473_29 0
d_472_473_10 1
d_472_473_29 0
d_473_474_38 0
d_473_474_10 6
d_473_474_29 0
d_474_475_38 0
d_474_475_10 7
d_474_475_29 0
d_474_476_38 2
d_474_476_10 0
d_474_476_29 0
d_475_476_38 0
d_475_476_10 6
d_475_476_29 0
d_475_662_38 1
d_476_477_38 0
d_476_477_10 2
d_476_477_29 0
d_476_480_38 0
d_476_480_10 3
d_476_480_29 0
d_477_480_38 0
d_477_480_10 1
d_477_480_29 0
d_480_370_30 2
d_480_662_38 1
d_483_484_7 411
d_483_485_7 5
d_483_489_7 1
d_483_499_7 1
d_484_485_7 211
d_485_486_7 71
d_485_487_7 36
d_485_488_7 10
d_485_489_7 10
d_485_490_7 1
d_485_492_7 2
d_485_499_7 3
d_486_487_7 8
d_487_488_7 144
d_487_489_7 5
d_487_490_7 1
d_487_491_7 1
d_488_489_7 125
d_488_490_7 2
d_488_494_7 1
d_488_499_7 2
d_489_490_7 239
d_489_491_7 2
d_489_492_7 6
d_489_494_7 1
d_489_499_7 4
d_490_491_7 55
d_490_492_7 3
d_490_493_7 1
d_490_499_7 2
d_491_492_7 34
d_492_493_7 142
d_492_494_7 5
d_492_495_7 1
d_493_494_7 36
d_493_495_7 2
d_494_495_7 136
d_494_497_7 1
d_494_498_7 1
d_494_499_7 3
d_495_496_7 20
d_495_499_7 8
d_496_497_7 8
d_496_499_7 5
d_497_498_7 8
d_497_499_7 9
d_498_499_7 4
d_499_125_8 2
d_499_126_8 4
d_499_500_8 1687
d_499_501_8 12
d_499_502_8 11
d_499_503_8 4
d_499_504_8 1
d_500_125_8 2
d_500_501_8 47
d_500_502_8 6
d_500_504_8 1
d_501_502_8 48
d_502_126_8 1
d_502_503_8 152
d_502_504_8 1
d_503_126_8 1
d_503_504_8 45
d_504_125_8 65
d_504_126_8 21
d_505_128_8 3
d_506_507_8 317
d_507_450_8 1
d_507_452_8 2
d_507_460_8 1
d_507_508_8 450
d_507_512_8 2
d_507_513_8 1
d_508_450_8 5
d_508_451_8 3
d_508_452_8 4
d_508_453_8 2
d_508_454_8 2
d_508_456_8 2
d_508_467_8 2
d_508_509_8 169
d_508_510_8 1
d_508_512_8 13
d_509_450_8 1
d_509_451_8 1
d_509_510_8 5
d_509_512_8 3
d_510_511_8 2
d_510_512_8 3
d_511_458_8 1
d_511_512_8 2
d_512_450_8 8
d_512_451_8 5
d_512_452_8 6
d_512_453_8 3
d_512_456_8 1
d_512_457_8 1
d_512_458_8 2
d_512_466_8 1
d_512_513_8 288
d_512_514_8 8
d_513_450_8 1
d_513_451_8 2
d_513_452_8 2
d_513_514_8 38
d_514_450_8 36
d_514_451_8 1
d_514_452_8 1
d_514_466_8 1
d_515_516_23 1
d_518_523_23 1
d_518_525_23 1
d_519_520_23 1
d_530_531_24 6
d_531_532_24 49
d_531_533_24 1
d_531_534_24 1
d_532_533_24 34
d_533_382_24 1
d_533_534_24 57
d_534_382_24 1
d_534_535_24 48
d_534_536_24 2
d_535_536_24 20
d_535_539_24 1
d_536_537_24 36
d_536_538_24 1
d_536_541_24 1
d_537_538_24 8
d_538_539_24 8
d_539_382_24 2
d_539_540_24 63
d_539_541_24 3
d_540_382_24 1
d_540_541_24 23
d_541_382_24 22
d_541_542_24 23
d_541_543_24 4
d_541_544_24 1
d_542_543_24 1
d_543_382_24 4
d_543_544_24 3
d_544_382_24 6
d_545_546_35 10
d_546_441_35 1
d_546_547_35 78
d_546_548_35 10
d_546_549_35 1
d_546_550_35 1
d_547_441_35 1
d_547_548_35 45
d_547_549_35 2
d_547_550_35 2
d_548_441_35 2
d_548_549_35 67
d_548_550_35 5
d_548_551_35 6
d_548_552_35 1
d_548_553_35 1
d_548_561_35 2
d_549_550_35 15
d_550_551_35 34
d_550_561_35 1
d_551_441_35 4
d_551_552_35 42
d_552_441_35 2
d_552_553_35 17
d_553_441_35 4
d_553_554_35 8
d_554_441_35 1
d_554_561_35 1
d_557_441_35 2
d_557_561_35 1
d_558_441_35 1
d_558_559_35 2
d_559_441_35 3
d_561_441_35 28
d_562_563_36 48
d_563_565_36 24
d_563_566_36 2
d_563_567_36 1
d_563_568_36 1
d_563_569_36 1
d_565_566_36 37
d_565_567_36 2
d_565_568_36 5
d_565_570_36 1
d_565_571_36 1
d_565_572_36 1
d_566_568_36 2
d_566_569_36 1
d_567_568_36 5
d_568_569_36 26
d_568_572_36 2
d_571_572_36 3
d_579_580_31 23
d_580_581_31 19
d_581_582_32 6
d_582_583_32 53
d_583_584_32 30
d_583_585_32 1
d_583_586_32 1
d_583_588_32 1
d_584_585_32 24
d_585_586_32 22
d_586_587_32 8
d_587_588_32 2
d_589_590_25 6
d_590_591_25 6
d_594_595_26 1
d_595_596_26 45
d_595_597_26 4
d_595_599_26 5
d_596_597_26 7
d_597_598_26 12
d_597_599_26 45
d_598_599_26 22
d_600_601_21 2
d_603_604_21 1
d_615_616_22 26
d_615_618_22 1
d_616_617_22 2
d_616_618_22 1
d_618_619_22 4
d_619_620_22 5
d_620_621_22 14
d_621_622_22 4
d_622_623_22 54
d_623_624_22 12
d_623_625_22 5
d_623_627_22 1
d_624_625_22 1
d_624_626_22 1
d_625_626_22 16
d_626_459_22 1
d_626_627_22 5
d_627_459_22 4
d_627_628_22 6
d_628_459_22 4
d_629_630_11 1
d_633_634_11 1
d_635_636_11 1
d_635_637_11 1
d_636_637_11 1
d_636_638_11 1
d_636_639_11 1
d_636_643_11 1
d_637_638_11 4
d_638_639_11 3
d_639_640_11 2
d_639_674_28 2
d_642_643_11 1
d_644_645_12 1
d_645_646_12 198
d_645_648_12 2
d_645_649_12 3
d_645_655_12 1
d_646_647_12 52
d_646_648_12 2
d_646_649_12 2
d_647_648_12 5
d_647_649_12 1
d_647_651_12 1
d_648_649_12 26
d_648_650_12 1
d_649_382_12 2
d_649_650_12 78
d_649_651_12 2
d_649_652_12 1
d_649_655_12 1
d_650_651_12 25
d_651_382_12 1
d_651_652_12 45
d_652_381_12 1
d_652_382_12 4
d_652_653_12 35
d_652_654_12 3
d_653_654_12 3
d_654_382_12 2
d_654_655_12 40
d_654_656_12 3
d_655_656_12 12
d_656_382_12 3
d_656_657_12 34
d_657_382_12 1
d_657_469_12 1
d_657_658_12 17
d_657_659_12 1
d_658_659_12 4
d_659_382_12 1
d_659_469_12 4
d_660_368_37 1
d_660_369_37 2
d_660_661_37 32
d_661_368_37 93
d_661_369_37 19
d_661_370_37 2
d_661_374_37 1
d_661_375_37 2
d_661_376_37 2
d_661_377_37 1
d_662_663_38 6
d_664_665_27 2
d_665_639_27 1
d_674_675_28 2
d_675_676_28 6
d_676_683_28 4
d_678_679_28 1
d_679_680_28 4
d_679_683_28 1
d_680_683_28 1
d_682_683_28 3
f_1 2
g_1 2
f_2 2
g_2 2
f_3 30
g_3 30
f_4 13
g_4 13
f_5 7
g_5 7
f_6 11
g_6 11
f_7 19
g_7 19
f_8 29
g_8 29
f_9 19
g_9 19
f_10 9
g_10 9
f_11 1
g_11 1
f_12 3
g_12 3
f_13 1
g_13 1
f_14 1
g_14 1
f_15 1
g_15 1
f_16 2
g_16 2
f_17 1
g_17 1
f_18 2
g_18 2
f_19 1
g_19 1
f_20 4
g_20 4
f_21 1
g_21 1
f_22 1
g_22 1
f_23 1
g_23 1
f_24 2
g_24 2
f_25 1
g_25 1
f_26 1
g_26 1
f_27 1
g_27 1
f_28 1
g_28 1
f_29 0
g_29 0
f_30 2
g_30 2
f_31 1
g_31 1
f_32 1
g_32 1
f_33 1
g_33 1
f_34 1
g_34 1
f_35 2
g_35 2
f_36 8
g_36 8
f_37 2
g_37 2
f_38 2
g_38 2
f_39 0
g_39 0
f_40 0
g_40 0
